NAME : problems/30-tsp/instance-37.tsp
COMMENT : No Comment
TYPE : TSP
DIMENSION: 30
EDGE_WEIGHT_TYPE : EUC_2D
NODE_COORD_SECTION
1 8995 9378 
2 6892 6033 
3 4596 7717 
4 7845 5213 
5 1340 2374 
6 7293 7280 
7 1673 2779 
8 216 2567 
9 9147 600 
10 6391 8631 
11 9427 462 
12 5771 4853 
13 613 891 
14 3132 5530 
15 3759 5680 
16 4836 6557 
17 8202 3429 
18 4413 3303 
19 9282 5054 
20 5226 9810 
21 1813 8452 
22 1221 2945 
23 8742 3623 
24 3813 2727 
25 5816 8366 
26 6244 6361 
27 9308 7835 
28 2009 1935 
29 8223 6883 
30 7828 16 
EOF
